PROBLEM NAME: eil51_n18
KNAPSACK DATA TYPE: uncorrelated, similar weights
DIMENSION: 18
NUMBER OF ITEMS: 17
CAPACITY OF KNAPSACK: 927772
MIN SPEED: 0.1
MAX SPEED: 1
RENTING RATIO: 5.17
EDGE_WEIGHT_TYPE: CEIL_2D
NODE_COORD_SECTION	(INDEX, X, Y):
1	37	52
2	49	49
3	20	26
4	21	47
5	17	63
6	31	62
7	51	21
8	42	41
9	31	32
10	27	23
11	17	33
12	7	38
13	58	27
14	38	46
15	32	22
16	5	6
17	25	55
18	48	28
ITEMS SECTION	(INDEX, PROFIT, WEIGHT, ASSIGNED NODE NUMBER):
1	954	100041	14
2	938	100052	8
3	936	100010	2
4	851	100076	13
5	696	100024	7
6	675	100044	18
7	586	100072	9
8	539	100027	15
9	486	100051	10
10	355	100033	16
11	354	100087	3
12	354	100012	11
13	337	100081	12
14	280	100089	4
15	139	100063	17
16	58	100063	5
17	17	100092	6
